% demand
num_movements = 48;
loading_factor = [850, 1900, 1700, 1300, 1300, 1200, 1350, 1400, 1700, 1500, 1700, 1450, 1100, 1300, 1250, 1800, 800, 1050, 1900, 1100, 1100, 1100, 1800, 1850, 1600, 1100, 1850, 1400, 1200, 800, 1800, 1650, 1200, 900, 1050, 950, 850, 1600, 1450, 1550, 1800, 1700, 1800, 1350, 800, 900, 1400, 1600];
pickup_time = [0, 0, 0, 0, 0, 0, 0, 0, 1, 1, 1, 1, 1, 3, 4, 4, 4, 4, 4, 4, 4, 7, 7, 7, 7, 7, 7, 7, 8, 8, 8, 8, 8, 8, 8, 9, 9, 10, 10, 10, 10, 12, 12, 12, 12, 12, 12, 12];
delivery_time = [4, 1, 1, 7, 1, 1, 1, 4, 4, 4, 2, 4, 2, 4, 7, 7, 7, 7, 7, 7, 7, 8, 8, 8, 8, 8, 8, 8, 9, 9, 9, 11, 12, 11, 9, 10, 11, 11, 13, 12, 11, 13, 13, 13, 13, 13, 13, 13];

% transporter definition
total_capacity = 11000;
num_decks = 4;
capacity = [3000, 3000, 1000, 4000];

% ways out of decks
num_ways_out = 2;
paths_out = array3d(decks, ways_out, decks, [
% ways out of deck d1
2, 4, 0, 0, 3, 4, 0, 0, 

% ways out of deck d2
4, 0, 0, 0, 0, 0, 0, 0,	

% ways out of deck d3
4, 0, 0, 0, 0, 0, 0, 0,	

% ways out of deck d4
0, 0, 0, 0,	0, 0, 0, 0,	

]);

